RT is False
Default write of storage_offers_DA.csv just to have a file (but constraint should be inactive)
Reading model...
...model read.
creating competitive generators file...
...competitive generators recorded.
Loading data...
.. day-ahead data read.
Compiling instance...
...instance created.
Creating Offer Mitigation (model will solve as dispatch if TRUE)...
NOTE: storage offers will not be mitigated
...storage offer mitigation file created
Converting model to MPEC...
...converted
NOTE: initial MIP solve with only storage competitive to get feasible solution
Solving...

Welcome to IBM(R) ILOG(R) CPLEX(R) Interactive Optimizer 12.9.0.0
  with Simplex, Mixed Integer & Barrier Optimizers
5725-A06 5725-A29 5724-Y48 5724-Y49 5724-Y54 5724-Y55 5655-Y21
Copyright IBM Corp. 1988, 2019.  All Rights Reserved.

Type 'help' for a list of available commands.
Type 'help' followed by a command name for more
information on commands.

CPLEX> Logfile 'cplex.log' closed.
Logfile 'C:\Users\Luke\Desktop\test919\logs\tmpe2krj76g.cplex.log' open.
CPLEX> New value for parallel optimization mode: -1
CPLEX> New value for mixed integer optimality gap tolerance: 0.01
CPLEX> New value for integrality tolerance: 1e-09
CPLEX> New value for feasibility tolerance: 0.01
CPLEX> New value for deterministic time limit in ticks: 75000
CPLEX> Problem 'C:\Users\Luke\Desktop\test919\logs\tmp0av1ywja.pyomo.lp' read.
Read time = 0.19 sec. (14.73 ticks)
CPLEX> Problem name         : C:\Users\Luke\Desktop\test919\logs\tmp0av1ywja.pyomo.lp
Objective sense      : Maximize
Variables            :   53805  [Nneg: 1,  Box: 22000,  Free: 4464,
                                 Binary: 27340]
Objective nonzeros   :    9081
Linear constraints   :  123205  [Less: 41346,  Greater: 59096,  Equal: 22763]
  Nonzeros           :  291902
  RHS nonzeros       :   67592

Variables            : Min LB: -5000.000        Max UB: 1000000.       
Objective nonzeros   : Min   : 0.1000000        Max   : 777.4000       
Linear constraints   :
  Nonzeros           : Min   : 0.1000000        Max   : 1000000.       
  RHS nonzeros       : Min   : 0.1000000        Max   : 1000000.       
CPLEX> CPXPARAM_Parallel                                -1
CPXPARAM_Simplex_Tolerances_Feasibility          0.01
CPXPARAM_DetTimeLimit                            75000
CPXPARAM_MIP_Tolerances_MIPGap                   0.01
CPXPARAM_MIP_Tolerances_Integrality              1.0000000000000001e-09
Tried aggregator 3 times.
MIP Presolve eliminated 88039 rows and 18417 columns.
MIP Presolve added 3507 rows and 0 columns.
MIP Presolve modified 25064 coefficients.
Aggregator did 13032 substitutions.
Reduced MIP has 25641 rows, 21878 columns, and 72968 nonzeros.
Reduced MIP has 8651 binaries, 0 generals, 0 SOSs, and 0 indicators.
Presolve time = 0.22 sec. (174.02 ticks)
Probing fixed 391 vars, tightened 2937 bounds.
Probing time = 1.47 sec. (904.65 ticks)
Tried aggregator 2 times.
MIP Presolve eliminated 881 rows and 783 columns.
MIP Presolve modified 2293 coefficients.
Aggregator did 40 substitutions.
Reduced MIP has 24720 rows, 21055 columns, and 70298 nonzeros.
Reduced MIP has 8260 binaries, 0 generals, 0 SOSs, and 0 indicators.
Presolve time = 0.09 sec. (76.28 ticks)
Probing time = 0.02 sec. (16.72 ticks)
Clique table members: 6559.
MIP emphasis: balance optimality and feasibility.
MIP search method: dynamic search.
Parallel mode: opportunistic, using up to 24 threads.
Root relaxation solution time = 0.52 sec. (561.99 ticks)

        Nodes                                         Cuts/
   Node  Left     Objective  IInf  Best Integer    Best Bound    ItCnt     Gap

      0     0     2914.3552   685                   2914.3552     6860         
      0     0     2914.3552     1                 Impl Bds: 1     6860         
*     0+    0                         2914.3552     2914.3552             0.00%
      0     0        cutoff           2914.3552     2914.3552     6860    0.00%
Elapsed time = 6.73 sec. (4597.35 ticks, tree = 0.01 MB, solutions = 1)

Implied bound cuts applied:  1

Root node processing (before b&c):
  Real time             =    6.75 sec. (4599.31 ticks)
Parallel b&c, 24 threads:
  Real time             =    0.00 sec. (0.00 ticks)
  Sync time (average)   =    0.00 sec.
  Wait time (average)   =    0.00 sec.
                          ------------
Total (root+branch&cut) =    6.75 sec. (4599.31 ticks)

Solution pool: 1 solution saved.

MIP - Integer optimal solution:  Objective =  2.9143551800e+03
Solution time =    6.77 sec.  Iterations = 6860  Nodes = 0
Deterministic time = 4599.47 ticks  (679.79 ticks/sec)

CPLEX> Incumbent solution written to file 'C:\Users\Luke\Desktop\test919\logs\tmp_4ky_rg4.cplex.sol'.
CPLEX> NOTE: no warmstart specified for MIP iteration, default behavior is true
NOTE: resolving with all competitive generators using storage-only solution to warmstart
Solving...

Welcome to IBM(R) ILOG(R) CPLEX(R) Interactive Optimizer 12.9.0.0
  with Simplex, Mixed Integer & Barrier Optimizers
5725-A06 5725-A29 5724-Y48 5724-Y49 5724-Y54 5724-Y55 5655-Y21
Copyright IBM Corp. 1988, 2019.  All Rights Reserved.

Type 'help' for a list of available commands.
Type 'help' followed by a command name for more
information on commands.

CPLEX> Logfile 'cplex.log' closed.
Logfile 'C:\Users\Luke\Desktop\test919\logs\tmp6oxon4bq.cplex.log' open.
CPLEX> New value for parallel optimization mode: -1
CPLEX> New value for mixed integer optimality gap tolerance: 0.01
CPLEX> New value for integrality tolerance: 1e-09
CPLEX> New value for feasibility tolerance: 0.01
CPLEX> New value for deterministic time limit in ticks: 75000
CPLEX> Problem 'C:\Users\Luke\Desktop\test919\logs\tmpiq_ipexp.pyomo.lp' read.
Read time = 0.20 sec. (14.75 ticks)
CPLEX> MIP start file 'C:\Users\Luke\Desktop\test919\logs\tmp8vjisgrk.cplex.mst' read.
CPLEX> Problem name         : C:\Users\Luke\Desktop\test919\logs\tmpiq_ipexp.pyomo.lp
Objective sense      : Maximize
Variables            :   54525  [Nneg: 1,  Box: 22720,  Free: 4464,
                                 Binary: 27340]
Objective nonzeros   :    9801
Linear constraints   :  123205  [Less: 41346,  Greater: 59096,  Equal: 22763]
  Nonzeros           :  291902
  RHS nonzeros       :   67592

Variables            : Min LB: -5000.000        Max UB: 1000000.       
Objective nonzeros   : Min   : 0.1000000        Max   : 777.4000       
Linear constraints   :
  Nonzeros           : Min   : 0.1000000        Max   : 1000000.       
  RHS nonzeros       : Min   : 0.1000000        Max   : 1000000.       
CPLEX> CPXPARAM_Parallel                                -1
CPXPARAM_Simplex_Tolerances_Feasibility          0.01
CPXPARAM_DetTimeLimit                            75000
CPXPARAM_MIP_Tolerances_MIPGap                   0.01
CPXPARAM_MIP_Tolerances_Integrality              1.0000000000000001e-09
Warning:  No solution found from 1 MIP starts.
Retaining values of one MIP start for possible repair.
Tried aggregator 3 times.
MIP Presolve eliminated 88039 rows and 19137 columns.
MIP Presolve added 3507 rows and 0 columns.
MIP Presolve modified 25064 coefficients.
Aggregator did 13032 substitutions.
Reduced MIP has 25641 rows, 21878 columns, and 72968 nonzeros.
Reduced MIP has 8651 binaries, 0 generals, 0 SOSs, and 0 indicators.
Presolve time = 0.23 sec. (174.38 ticks)
Probing fixed 391 vars, tightened 2937 bounds.
Probing time = 1.52 sec. (904.65 ticks)
Tried aggregator 2 times.
MIP Presolve eliminated 881 rows and 783 columns.
MIP Presolve modified 2293 coefficients.
Aggregator did 40 substitutions.
Reduced MIP has 24720 rows, 21055 columns, and 70298 nonzeros.
Reduced MIP has 8260 binaries, 0 generals, 0 SOSs, and 0 indicators.
Presolve time = 0.11 sec. (76.28 ticks)
Probing time = 0.02 sec. (16.72 ticks)
Clique table members: 6559.
MIP emphasis: balance optimality and feasibility.
MIP search method: dynamic search.
Parallel mode: opportunistic, using up to 24 threads.
Root relaxation solution time = 0.52 sec. (561.99 ticks)

        Nodes                                         Cuts/
   Node  Left     Objective  IInf  Best Integer    Best Bound    ItCnt     Gap

      0     0     2914.3552   685                   2914.3552     6860         
      0     0     2914.3552     1                 Impl Bds: 1     6860         
*     0+    0                         2914.3552     2914.3552             0.00%
      0     0        cutoff           2914.3552     2914.3552     6860    0.00%
Elapsed time = 6.98 sec. (4624.99 ticks, tree = 0.01 MB, solutions = 1)

Implied bound cuts applied:  1

Root node processing (before b&c):
  Real time             =    7.00 sec. (4626.97 ticks)
Parallel b&c, 24 threads:
  Real time             =    0.00 sec. (0.00 ticks)
  Sync time (average)   =    0.00 sec.
  Wait time (average)   =    0.00 sec.
                          ------------
Total (root+branch&cut) =    7.00 sec. (4626.97 ticks)

Solution pool: 1 solution saved.

MIP - Integer optimal solution:  Objective =  2.9143551800e+03
Solution time =    7.00 sec.  Iterations = 6860  Nodes = 0
Deterministic time = 4627.12 ticks  (661.02 ticks/sec)

CPLEX> Incumbent solution written to file 'C:\Users\Luke\Desktop\test919\logs\tmplorh6634.cplex.sol'.
CPLEX> Exporting results... 
